s td 130 11 152
b 1 8 14 50 128
b 2 8 63 121 128
b 3 14 31 76 128
b 4 3 4 92 138
b 5 10 62 90 106
b 6 15 62 106 147
b 7 20 26 136 137
b 8 3 24 68 87
b 9 37 46 92 138
b 10 3 46 92 138
b 11 22 25 52 136
b 12 21 55 68 74
b 13 67 106 144 147
b 14 78 90 106 130
b 15 79 95 98 136
b 16 25 98 103 136
b 17 95 108 136 149
b 18 21 26 68 110
b 19 26 35 71 136 137
b 20 1 7 26 28 45 65 81 106 125 135 136
b 21 7 26 28 45 73 81 99 106 135 136 144
b 22 7 26 45 57 73 95 99 106 135 136 144
b 23 7 26 45 57 73 95 106 135 136 144 147
b 24 7 26 27 45 57 95 98 106 135 136 147
b 25 7 26 27 45 57 62 98 106 135 136 147
b 26 7 25 26 27 45 62 86 98 106 135 136
b 27 7 25 26 27 45 62 86 90 106 135 136
b 28 7 25 26 45 86 90 106 126 135 136 142
b 29 7 26 45 49 86 90 106 126 135 136 142
b 30 7 26 42 45 49 85 106 126 135 136
b 31 7 26 42 45 85 88 106 117 135 136
b 32 7 26 45 88 106 117 133 135 136 150
b 33 7 26 88 100 117 133 135 136 150
b 34 7 26 71 100 133 135 136 150
b 35 2 7 71 100 133 135 150
b 36 7 26 71 133 135 136 137
b 37 7 29 71 133 135 137
b 38 26 70 71 100 136
b 39 26 69 100 117 136
b 40 7 88 100 117 118 135 150
b 41 13 45 88 106 150
b 42 44 45 106 133 150
b 43 7 42 60 85 88 117 135
b 44 42 45 80 88 106
b 45 26 85 117 129 136
b 46 5 26 85 126 136
b 47 7 42 49 85 116 126 135
b 48 42 45 49 106 141
b 49 7 45 49 75 86 90 106 126 135 142
b 50 7 12 49 75 126 135 142
b 51 45 49 75 90 106 130
b 52 22 25 26 126 136 142
b 53 27 45 62 86 90 96 135
b 54 7 25 26 27 39 86 98
b 55 27 45 57 62 135 139 147
b 56 7 26 27 57 64 95 98
b 57 18 45 57 73 135 144 147
b 58 7 26 57 73 95 99 136 149
b 59 7 26 57 73 95 149 152
b 60 26 34 81 99 136
b 61 7 28 45 73 81 99 106 135 140 144
b 62 7 28 81 99 101 135 140
b 63 28 45 106 140 151
b 64 1 7 26 28 45 65 84 106 125 135 136
b 65 1 7 19 26 45 84 106 125 135 136
b 66 1 7 19 26 38 45 106 125 135 136
b 67 7 19 26 38 40 45 106 135 136
b 68 7 19 26 38 40 45 93 135 136
b 69 6 26 38 93 136
b 70 7 26 40 45 93 121 135 136
b 71 7 26 40 66 93 121 135 136
b 72 7 26 66 93 119 121 135 136
b 73 7 8 26 66 119 121 135 136
b 74 7 8 26 31 119 121 136
b 75 7 8 14 31 119 121
b 76 8 14 31 121 128
b 77 26 31 113 119 136
b 78 26 93 104 119 136
b 79 7 19 38 40 93 111 135
b 80 19 40 45 106 148
b 81 9 19 45 84 106
b 82 28 32 45 84 106
b 83 1 7 26 54 65 81 125 136
b 84 26 48 54 81 136
b 85 3 30 68 77 87
b 86 3 30 36 61 68
b 87 3 30 36 46 51 68
b 88 30 36 46 51 72
b 89 3 30 46 51 68 87
b 90 30 46 51 87 124
b 91 3 36 43 68 127
b 92 3 36 46 51 68 127
b 93 3 41 46 51 68 127
b 94 3 41 53 68 127
b 95 41 46 51 114 127
b 96 36 46 51 127 145
b 97 3 41 47 68 112
b 98 3 41 46 47 51 68
b 99 41 46 47 51 120
b 100 3 33 47 68 123
b 101 3 46 47 51 68 123
b 102 46 47 51 123 131
b 103 46 51 102 115 123
b 104 3 46 51 68 115 123
b 105 3 68 115 123 132
b 106 3 17 68 109 115
b 107 3 46 51 68 109 115
b 108 46 51 83 109 115
b 109 3 11 68 82 109
b 110 3 11 46 51 68 109
b 111 11 46 51 109 146
b 112 3 11 23 68 89
b 113 3 11 23 46 51 68
b 114 11 23 46 51 94
b 115 3 16 23 59 68
b 116 3 16 23 46 51 68
b 117 3 16 46 51 58 68
b 118 3 46 51 58 68 91
b 119 46 51 58 91 105
b 120 3 58 68 91 143
b 121 3 16 56 58 68
b 122 16 46 51 58 97
b 123 16 23 46 51 134
b 124 3 21 68 74 91 107
b 125 3 21 45 46 68 91 107
b 126 3 21 45 46 68 107 135
b 127 3 7 21 45 68 135
b 128 7 21 26 45 68 135
b 129 3 45 46 51 68 91 107
b 130 45 46 51 91 107 122
1 76
2 76
3 76
4 10
5 27
6 25
7 36
8 89
9 10
10 125
11 52
12 124
13 23
14 51
15 24
16 26
17 58
18 128
19 36
20 128
20 21
20 64
20 83
21 22
21 60
21 61
22 23
22 58
23 24
23 57
24 25
24 56
25 26
25 55
26 27
26 54
27 28
27 53
28 29
28 52
29 30
29 49
30 31
30 46
30 47
30 48
31 32
31 43
31 44
31 45
32 33
32 41
32 42
33 34
33 39
33 40
34 35
34 36
34 38
36 37
49 50
49 51
58 59
61 62
61 63
64 65
64 82
65 66
65 81
66 67
67 68
67 80
68 69
68 70
68 79
70 71
71 72
72 73
72 78
73 74
74 75
74 77
75 76
83 84
85 89
86 87
87 92
87 88
87 89
89 90
91 92
92 96
92 93
93 98
93 94
93 95
97 98
98 101
98 99
100 101
101 104
101 102
103 104
104 107
104 105
106 107
107 110
107 108
109 110
110 113
110 111
112 113
113 116
113 114
115 116
116 123
116 117
117 121
117 122
117 118
118 129
118 119
118 120
124 125
125 129
125 126
126 127
127 128
129 130
